% demand
num_movements = 30;
loading_factor = [1850, 900, 1850, 1550, 1200, 1350, 950, 1850, 1800, 1500, 1900, 1350, 1650, 1600, 1750, 1750, 1000, 1900, 1050, 850, 1000, 1600, 1900, 1900, 900, 950, 1700, 1350, 1650, 2000];
pickup_time = [0, 0, 0, 0, 1, 1, 1, 1, 3, 3, 3, 3, 3, 3, 4, 4, 4, 4, 4, 5, 6, 6, 6, 7, 7, 7, 7, 7, 7, 7];
delivery_time = [2, 1, 1, 2, 2, 2, 4, 2, 4, 4, 4, 4, 4, 4, 6, 6, 6, 6, 6, 6, 7, 7, 7, 8, 8, 9, 8, 9, 8, 8];

% transporter definition
total_capacity = 11000;
num_decks = 4;
capacity = [3000, 3000, 1000, 4000];

% ways out of decks
num_ways_out = 2;
paths_out = array3d(decks, ways_out, decks, [
% ways out of deck d1
2, 4, 0, 0, 3, 4, 0, 0, 

% ways out of deck d2
4, 0, 0, 0, 0, 0, 0, 0,	

% ways out of deck d3
4, 0, 0, 0, 0, 0, 0, 0,	

% ways out of deck d4
0, 0, 0, 0,	0, 0, 0, 0,	

]);

